Test: fpga12_11_sat.cnf
Options: -no-inverting-opt -sym-var-bump
WARNING: for repeatability, setting FPU to use double precision
============================[ Problem Statistics ]=============================
|                                                                             |
|  Number of symmetries:           29                                         |
|  Number of invertingSyms:         0                                         |
|  Number of variables:           198                                         |
|  Number of clauses:             968                                         |
|  Parse time:                   0.00 s                                       |
|                                                                             |
============================[ Search Statistics ]==============================
| Conflicts |          ORIGINAL         |          LEARNT          | Progress |
|           |    Vars  Clauses Literals |    Limit  Clauses Lit/Cl |          |
===============================================================================
|       100 |     198      968     2640 |      354      197     37 |  0.003 % |
===============================================================================
restarts              : 3
conflicts             : 219            (54750 /sec)
symconflicts          : 40             (10000 /sec)
decisions             : 576            (0.00 % random) (144000 /sec)
propagations          : 4179           (1044750 /sec)
sympropagations       : 219            (54750 /sec)
conflict literals     : 8902           (2.76 % deleted)
literals     : 8902           (2.76 % deleted)

HEURISTIC USAGES
random                : 0           
activity w/ lookahead : 0           
activity no lookahead : 0           
original sp           : 575         
sym count             : 0           

Memory used           : 5.00 MB
CPU time              : 0.004 s

SATISFIABLE
